CONTCAR\(3)                             
   1.00000000000000     
    15.0000000000000000    0.0000000000000000    0.0000000000000000
     0.0000000000000000   10.0000000000000000    0.0000000000000000
     0.0000000000000000    0.0000000000000000   10.0000000000000000
   C    H 
     6    10
Selective dynamics
Direct
  0.5626478436722522  0.4478499889999981  0.5000699759999989   F   F   F
  0.5165005780545417  0.5731742631991866  0.5020344296433250   T   T   T
  0.6846169828490218  0.4478499889999981  0.5000699759999989   F   F   F
  0.4256990131459821  0.5757074590354152  0.5007878491896790   T   T   T
  0.5199636654710295  0.3138089501670006  0.4974281065938519   T   T   T
  0.5688498792215230  0.7018965053563971  0.5054664867485344   T   T   T
  0.7201122564657555  0.5423873105977560  0.5018748583306145   T   T   T
  0.3894267180795671  0.6701699540741269  0.5021679819240995   T   T   T
  0.3859824086045582  0.4845033583787888  0.4982395476690958   T   T   T
  0.7156789018950603  0.3497341788044019  0.4983887025161459   T   T   T
  0.4773607922963402  0.3016169119611234  0.4083269837372564   T   T   T
  0.4765465048988718  0.2987543273129614  0.5851901633789782   T   T   T
  0.5700163315687130  0.2339936492512056  0.4966323942488484   T   T   T
  0.5239771041848489  0.7885624186473755  0.5067009027701335   T   T   T
  0.6125723915656704  0.7102720693876341  0.4176235654113801   T   T   T
  0.6114947862404476  0.7064708996023288  0.5947709494022416   T   T   T
 
  0.00000000E+00  0.00000000E+00  0.00000000E+00
  0.00000000E+00  0.00000000E+00  0.00000000E+00
  0.00000000E+00  0.00000000E+00  0.00000000E+00
  0.00000000E+00  0.00000000E+00  0.00000000E+00
  0.00000000E+00  0.00000000E+00  0.00000000E+00
  0.00000000E+00  0.00000000E+00  0.00000000E+00
  0.00000000E+00  0.00000000E+00  0.00000000E+00
  0.00000000E+00  0.00000000E+00  0.00000000E+00
  0.00000000E+00  0.00000000E+00  0.00000000E+00
  0.00000000E+00  0.00000000E+00  0.00000000E+00
  0.00000000E+00  0.00000000E+00  0.00000000E+00
  0.00000000E+00  0.00000000E+00  0.00000000E+00
  0.00000000E+00  0.00000000E+00  0.00000000E+00
  0.00000000E+00  0.00000000E+00  0.00000000E+00
  0.00000000E+00  0.00000000E+00  0.00000000E+00
  0.00000000E+00  0.00000000E+00  0.00000000E+00
