C  H 
 1.0000000000000000
    15.0000000000000000    0.0000000000000000    0.0000000000000000
     0.0000000000000000   10.0000000000000000    0.0000000000000000
     0.0000000000000000    0.0000000000000000   10.0000000000000000
 C   H  
   6  10
Selective dynamics
Cartesian
  8.4397176550837827  4.4784998899999815  5.0006997599999892   F   F   F
  7.7475086708181262  5.7317426319918665  5.0203442964332501   T   T   T
 10.2692547427353276  4.4784998899999815  5.0006997599999892   F   F   F
  6.3854851971897313  5.7570745903541525  5.0078784918967898   T   T   T
  7.7994549820654422  3.1380895016700059  4.9742810659385190   T   T   T
  8.5327481883228451  7.0189650535639716  5.0546648674853447   T   T   T
 10.8016838469863323  5.4238731059775604  5.0187485833061452   T   T   T
  5.8414007711935065  6.7016995407412692  5.0216798192409948   T   T   T
  5.7897361290683724  4.8450335837878882  4.9823954766909582   T   T   T
 10.7351835284259050  3.4973417880440190  4.9838870251614589   T   T   T
  7.1604118844451028  3.0161691196112339  4.0832698373725638   T   T   T
  7.1481975734830767  2.9875432731296141  5.8519016337897822   T   T   T
  8.5502449735306953  2.3399364925120563  4.9663239424884846   T   T   T
  7.8596565627727335  7.8856241864737555  5.0670090277013351   T   T   T
  9.1885858734850565  7.1027206938763410  4.1762356541138015   T   T   T
  9.1724217936067145  7.0647089960232883  5.9477094940224164   T   T   T
